10J3M/DAT/10J3MUNX-2.dat
10 3
19.1405 4.375
16.9123 4.1125
23.1445 4.8109
33.1956 5.7616
35.4036 5.9501
14.2662 3.7771
23.4908 4.8467
31.7669 5.6362
22.5224 4.7458
10.8339 3.2915
47.3074