10J3M/SOL/10J3MUNX-2.sol
solution status: optimal solution found
objective value:                     76.8922333333333
x#1#2                                               1 	(obj:0)
x#2#2                                               1 	(obj:0)
x#3#1                                               1 	(obj:0)
x#4#3                                               1 	(obj:0)
x#5#3                                               1 	(obj:0)
x#6#2                                               1 	(obj:0)
x#7#1                                               1 	(obj:0)
x#8#1                               0.738941057096118 	(obj:0)
x#8#3                               0.261058942903882 	(obj:0)
x#9#1                               0.301169798363703 	(obj:0)
x#9#2                               0.698830201636297 	(obj:0)
x#10#2                                              1 	(obj:0)
z                                    76.8922333333333 	(obj:1)
